amplhints/amplegs/networkflows/networkflow.out
ampl: model networkflow.mod;
ampl: data networkflow.dat;
ampl: solve;
CPLEX 12.8.0.0: optimal solution; objective 144
1 dual simplex iterations (0 in phase I)
ampl: display x;
x :=
r s   4
r t   6
s t   1
s u   3
t u   0
t v   7
u v   0
u w   3
v w   7
;

